\ Equation counts
\     Total        E        G        L        N        X        C        B
\        54        6       24       24        0        0        0        0
\ 
\ Variable counts
\                  x        b        i      s1s      s2s       sc       si
\     Total     cont   binary  integer     sos1     sos2    scont     sint
\        44       20       24        0        0        0        0        0
\ 
\ Nonzero counts
\     Total    const       NL      DLL
\       188      180        8        0
\ 
Minimize
 obj: - 1.2e3 x1 - 7.8e3 x2 - 3.36e3 x3 - 4.2e2 x4 - 3e3 x5 - 1.17e4 x6 - 4.32e3 x7 - 4.2e2 x8 + 0 b9 
  + 0 b10 + 0 b11 + 0 b12 + 0 b13 + 0 b14 + 0 b15 + 0 b16 + 0 b17 + 0 b18 + 0 b19 + 0 b20 + 0 b21 + 0 b22 
  + 0 b23 + 0 b24 + 0 b25 + 0 b26 + 0 b27 + 0 b28 + 0 b29 + 0 b30 + 0 b31 + 0 b32 + 300 x33 + 2.4e2 x34 
  + 2.1e2 x35 + 100 x36 + 1.5e2 x37 + 1.2e2 x38 + 300 x39 + 2.4e2 x40 + 2.1e2 x41 + 100 x42 + 1.5e2 x43 
  + 1.2e2 x44 + [ 300 x1^2 + 7.8e2 x2^2 + 4.8e2 x3^2 + 1.4e2 x4^2 + 300 x5^2 + 7.8e2 x6^2 + 4.8e2 x7^2 
  + 1.4e2 x8^2 ]/2 + objconstant

Subject To
 e2: - x1 + x2 + x33 >= 0
 e3: - x1 + x3 + x34 >= 0
 e4: - x1 + x4 + x35 >= 0
 e5: - x2 + x3 + x36 >= 0
 e6: - x2 + x4 + x37 >= 0
 e7: - x3 + x4 + x38 >= 0
 e8: x1 - x2 + x33 >= 0
 e9: x1 - x3 + x34 >= 0
 e10: x1 - x4 + x35 >= 0
 e11: x2 - x3 + x36 >= 0
 e12: x2 - x4 + x37 >= 0
 e13: x3 - x4 + x38 >= 0
 e14: - x5 + x6 + x39 >= 0
 e15: - x5 + x7 + x40 >= 0
 e16: - x5 + x8 + x41 >= 0
 e17: - x6 + x7 + x42 >= 0
 e18: - x6 + x8 + x43 >= 0
 e19: - x7 + x8 + x44 >= 0
 e20: x5 - x6 + x39 >= 0
 e21: x5 - x7 + x40 >= 0
 e22: x5 - x8 + x41 >= 0
 e23: x6 - x7 + x42 >= 0
 e24: x6 - x8 + x43 >= 0
 e25: x7 - x8 + x44 >= 0
 e26: x1 - x2 + 30 b9 <= 24
 e27: x1 - x3 + 30 b10 <= 26
 e28: x1 - x4 + 30 b11 <= 26.5
 e29: x2 - x3 + 30 b12 <= 25
 e30: x2 - x4 + 30 b13 <= 25.5
 e31: x3 - x4 + 30 b14 <= 27.5
 e32: - x1 + x2 + 30 b15 <= 24
 e33: - x1 + x3 + 30 b16 <= 26
 e34: - x1 + x4 + 30 b17 <= 26.5
 e35: - x2 + x3 + 30 b18 <= 25
 e36: - x2 + x4 + 30 b19 <= 25.5
 e37: - x3 + x4 + 30 b20 <= 27.5
 e38: x5 - x6 + 30 b21 <= 24.5
 e39: x5 - x7 + 30 b22 <= 25.5
 e40: x5 - x8 + 30 b23 <= 25.5
 e41: x6 - x7 + 30 b24 <= 26
 e42: x6 - x8 + 30 b25 <= 26
 e43: x7 - x8 + 30 b26 <= 27
 e44: - x5 + x6 + 30 b27 <= 24.5
 e45: - x5 + x7 + 30 b28 <= 25.5
 e46: - x5 + x8 + 30 b29 <= 25.5
 e47: - x6 + x7 + 30 b30 <= 26
 e48: - x6 + x8 + 30 b31 <= 26
 e49: - x7 + x8 + 30 b32 <= 27
 e50: b9 + b15 + b21 + b27 = 1
 e51: b10 + b16 + b22 + b28 = 1
 e52: b11 + b17 + b23 + b29 = 1
 e53: b12 + b18 + b24 + b30 = 1
 e54: b13 + b19 + b25 + b31 = 1
 e55: b14 + b20 + b26 + b32 = 1

Bounds
 2.5 <= x1 <= 27.5
 3.5 <= x2 <= 26.5
 1.5 <= x3 <= 28.5
 1 <= x4 <= 29
 3 <= x5 <= 27
 2.5 <= x6 <= 27.5
 1.5 <= x7 <= 28.5
 1.5 <= x8 <= 28.5
 objconstant = 1.7661e5

Binary
 b9 b10 b11 b12 b13 b14 b15 b16 b17 b18 b19 b20 b21 b22 b23 b24 b25 b26 b27 b28 b29 b30 b31
 b32

End
